letting n =  10
letting blocks =  [[2, 2], [2, 7], [3, 2], [3, 5], [3, 8], [3, 10], [4, 1], [4, 2], [4, 3], [4, 8], [4, 9], [5, 1], [5, 3], [5, 7], [6, 3], [6, 6], [7, 1], [7, 3], [7, 5], [7, 7], [7, 10], [8, 3], [8, 6], [8, 8], [9, 4], [9, 6], [9, 9], [10, 4], [10, 5], [10, 7]]
